ALGO	= Fast
EDIFF	= 0.002
ENCUT	= 520
IBRION	= 2
ICHARG	= 1
ISIF	= 3
ISMEAR	= -5
ISPIN	= 2
KPAR	= 8
LORBIT	= 11
LREAL	= Auto
LWAVE	= False
MAGMOM	= [10.0, 10.0, 10.0, 10.0, 10.0, 10.0, 10.0, 10.0, 10.0, 10.0, 10.0, 10.0, 10.0, 10.0, 10.0, 10.0, 0.6, 0.6, 0.6, 0.6, 0.6, 0.6, 0.6, 0.6, 0.6, 0.6, 0.6, 0.6, 0.6, 0.6, 0.6, 0.6, 0.6, 0.6, 0.6, 0.6, 0.6, 0.6, 0.6, 0.6]
NELM	= 100
NSW	= 99
PREC	= Accurate
SIGMA	= 0.05
