ALGO	= Fast
EDIFF	= 2e-06
ENCUT	= 520
IBRION	= 2
ICHARG	= 1
ISIF	= 3
ISMEAR	= -5
ISPIN	= 2
LREAL	= Auto
LWAVE	= True
MAGMOM	= [0.6, 5.0]
NELM	= 100
NELMIN	= 3
NPAR	= 1
NSW	= 200
PREC	= Accurate
SIGMA	= 0.05
SYSTEM	= Rubyvaspy :: o cd
