 O  H 
 1.0000000000000000
    20.0000000000000000    0.0000000000000000    0.0000000000000000
     0.0000000000000000   21.0000000000000000    0.0000000000000000
     0.0000000000000000    0.0000000000000000   22.0000000000000000
   1   2
Cartesian
 10.0000000000000000 10.5000000000000000 11.2981545000000008
 10.0000000000000000 11.2632390000000004 10.7018454999999992
 10.0000000000000000  9.7367609999999996 10.7018454999999992
